set VV := 0 1 2 3 4 5 6 7 ;
set VS := 0 1 2 3 4 5 6 7 8 9 10 11 12 13 14 15 16 17 18 19 ;
param cv := 
0 25
1 22
2 12
3 22
4 14
5 24
6 25
7 12
;
param cs := 
0 25
1 39
2 25
3 28
4 38
5 24
6 21
7 36
8 20
9 35
10 39
11 35
12 22
13 30
14 30
15 34
16 35
17 26
18 40
19 27
;
param bv:	 0 1 2 3 4 5 6 7 := 
		0 0 0 20 20 0 0 0 0 
		1 0 0 0 0 25 24 0 25 
		2 0 0 0 0 0 0 17 0 
		3 0 0 0 0 0 0 0 0 
		4 0 0 0 0 0 10 13 0 
		5 0 0 0 0 0 0 0 0 
		6 0 0 0 0 0 0 0 0 
		7 0 0 0 0 0 0 0 0 
;
param bs:	 0 1 2 3 4 5 6 7 8 9 10 11 12 13 14 15 16 17 18 19 := 
		0 0 0 0 0 0 0 0 0 0 0 0 0 40 0 0 0 0 0 0 0 
		1 0 0 0 0 0 0 0 0 28 0 0 0 0 24 0 0 0 35 0 33 
		2 0 0 0 0 0 0 0 0 0 0 0 32 24 0 0 0 39 0 0 31 
		3 0 0 0 0 0 25 0 0 0 0 0 0 20 0 0 0 0 0 0 0 
		4 0 0 0 0 0 0 0 0 0 0 0 0 0 0 34 34 0 0 39 0 
		5 0 0 0 25 0 0 0 0 0 0 0 0 0 0 0 0 32 0 0 0 
		6 0 0 0 0 0 0 0 0 0 26 0 0 0 0 0 0 0 0 25 0 
		7 0 0 0 0 0 0 0 0 0 0 0 0 0 0 0 0 29 0 0 0 
		8 0 28 0 0 0 0 0 0 0 0 0 0 0 0 0 0 36 0 0 20 
		9 0 0 0 0 0 0 26 0 0 0 0 0 28 0 0 0 0 27 0 0 
		10 0 0 0 0 0 0 0 0 0 0 0 0 0 24 0 0 0 0 0 0 
		11 0 0 32 0 0 0 0 0 0 0 0 0 0 31 0 0 0 0 0 0 
		12 40 0 24 20 0 0 0 0 0 28 0 0 0 0 0 0 0 0 0 0 
		13 0 24 0 0 0 0 0 0 0 0 24 31 0 0 0 0 0 0 0 0 
		14 0 0 0 0 34 0 0 0 0 0 0 0 0 0 0 0 0 0 0 0 
		15 0 0 0 0 34 0 0 0 0 0 0 0 0 0 0 0 0 0 0 0 
		16 0 0 39 0 0 32 0 29 36 0 0 0 0 0 0 0 0 0 0 0 
		17 0 35 0 0 0 0 0 0 0 27 0 0 0 0 0 0 0 0 25 0 
		18 0 0 0 0 39 0 25 0 0 0 0 0 0 0 0 0 0 25 0 0 
		19 0 33 31 0 0 0 0 0 20 0 0 0 0 0 0 0 0 0 0 0 
;
